unsat
(:cnf-encoding-aux-vars 32
 :eliminated-vars       38
 :max-memory            18.45
 :memory                18.11
 :nlsat-conflicts       88
 :nlsat-decisions       142
 :nlsat-learned-added   86
 :nlsat-propagations    874
 :nlsat-stages          43
 :num-allocs            17385
 :rlimit-count          29346
 :time                  0.01
 :total-time            0.01)
